0 0 0 0
0 1 0 0
0 2 0 0
0 3 1 0
0 4 0 2
0 5 1 12
0 6 1 2
0 7 1 5
0 8 0 2
0 9 2 5
0 10 0 5
0 11 1 2
0 12 1 12
0 13 0 10
0 14 2 9
0 15 0 7
0 16 0 5
0 17 0 13
0 18 1 15
0 19 1 8
0 20 0 21
0 21 0 21
0 22 2 10
0 23 1 15
0 24 0 10
0 25 0 22
0 26 0 14
0 27 0 17
0 28 0 23
0 29 2 23
0 30 1 21
0 31 0 29
